
  22    4
  10   10   10   10

   0   0   0   0   0   5 2 3 4 5 7 
   8  10  10  10  10   3 12 10 9 
   3  10  10  10  10   3 12 10 9 
   3  10  10  10  10   2 13 8 
   2  10  10  10  10   1 6 
   8  10  10  10  10   3 13 12 10 
   4  10  10  10  10   3 13 12 10 
   9  10  10  10  10   2 12 10 
   7  10  10  10  10   3 18 14 13 
   5  10  10  10  10   1 11 
   3  10  10  10  10   3 18 17 14 
   2  10  10  10  10   2 16 15 
   5  10  10  10  10   2 19 16 
   7  10  10  10  10   1 15 
   5  10  10  10  10   2 21 19 
   7  10  10  10  10   2 21 20 
   2  10  10  10  10   2 21 20 
   8  10  10  10  10   1 19 
   4  10  10  10  10   1 20 
   1  10  10  10  10   1 22
   6  10  10  10  10   1 22
   0   0   0   0   0   0 
